DIMACS2
40 174 42 95 63 179 96 159 39 100 304 135 296 22 163 8 162 133 136 280 0 53 155 16 30 116 150 189 206 310 115 252 3 287 261 112 83 31 218 303 149
p edge 320 1306
e 0 230 17.0
e 0 108 1.0
e 0 258 19.0
e 0 22 33.0
e 0 252 11.0
e 1 217 2.0
e 1 127 1.0
e 1 83 18.0
e 1 136 10.0
e 2 156 1.0
e 2 252 39.0
e 2 122 1.0
e 2 73 2.0
e 3 149 20.0
e 3 91 45.0
e 3 71 40.0
e 3 196 35.0
e 3 150 37.0
e 4 268 1.0
e 4 285 1.0
e 4 179 14.0
e 4 31 9.0
e 5 15 1.0
e 5 258 1.0
e 5 117 1.0
e 5 276 1.0
e 6 309 3.0
e 6 84 1.0
e 6 223 2.0
e 6 312 1.0
e 7 42 40.0
e 7 189 27.0
e 7 154 1.0
e 7 273 1.0
e 8 298 20.0
e 8 14 21.0
e 8 204 23.0
e 8 173 43.0
e 8 133 43.0
e 9 139 1.0
e 9 2 1.0
e 9 167 2.0
e 9 299 1.0
e 10 216 1.0
e 10 129 1.0
e 10 190 1.0
e 10 69 1.0
e 11 25 2.0
e 11 156 1.0
e 11 1 2.0
e 11 42 48.0
e 12 55 1.0
e 12 304 4.0
e 12 24 2.0
e 12 241 1.0
e 13 179 36.0
e 13 182 1.0
e 13 110 1.0
e 13 296 10.0
e 14 34 2.0
e 14 47 2.0
e 14 118 3.0
e 14 260 3.0
e 15 60 2.0
e 15 236 2.0
e 15 10 1.0
e 15 165 3.0
e 16 15 31.0
e 16 203 17.0
e 16 97 20.0
e 16 22 23.0
e 17 230 1.0
e 17 272 1.0
e 17 297 1.0
e 17 70 1.0
e 18 266 1.0
e 18 161 1.0
e 18 48 1.0
e 18 293 1.0
e 19 63 49.0
e 19 34 1.0
e 19 242 1.0
e 19 48 1.0
e 20 284 1.0
e 20 123 2.0
e 20 234 2.0
e 20 0 47.0
e 21 64 1.0
e 21 213 1.0
e 21 85 1.0
e 21 191 1.0
e 22 167 19.0
e 22 122 15.0
e 22 48 1.0
e 22 156 10.0
e 23 1 2.0
e 23 243 1.0
e 23 130 1.0
e 23 268 1.0
e 24 78 1.0
e 24 233 1.0
e 24 254 1.0
e 24 149 49.0
e 25 58 1.0
e 25 29 1.0
e 25 10 1.0
e 25 233 1.0
e 26 278 1.0
e 26 245 1.0
e 26 64 2.0
e 26 60 1.0
e 27 275 1.0
e 27 308 1.0
e 27 185 1.0
e 27 307 1.0
e 28 193 1.0
e 28 255 2.0
e 28 19 1.0
e 28 149 31.0
e 29 302 1.0
e 29 127 1.0
e 29 149 29.0
e 29 124 2.0
e 30 93 18.0
e 30 97 39.0
e 30 136 23.0
e 30 12 7.0
e 30 112 31.0
e 30 39 7.0
e 30 83 24.0
e 30 303 14.0
e 31 215 13.0
e 31 277 12.0
e 31 87 35.0
e 31 101 37.0
e 32 36 1.0
e 32 280 31.0
e 32 266 1.0
e 32 10 2.0
e 33 282 1.0
e 33 62 2.0
e 33 188 1.0
e 33 258 1.0
e 34 199 1.0
e 34 107 2.0
e 34 173 2.0
e 34 180 1.0
e 35 280 30.0
e 35 143 1.0
e 35 82 1.0
e 35 108 2.0
e 36 287 42.0
e 36 256 1.0
e 36 279 1.0
e 37 175 1.0
e 37 184 1.0
e 37 274 1.0
e 37 234 1.0
e 38 218 6.0
e 38 209 2.0
e 38 57 1.0
e 38 12 1.0
e 39 147 24.0
e 39 95 2.0
e 39 49 24.0
e 39 114 39.0
e 39 218 43.0
e 40 228 1.0
e 40 110 1.0
e 40 234 2.0
e 40 289 1.0
e 41 141 1.0
e 41 104 2.0
e 41 301 1.0
e 41 195 1.0
e 42 204 33.0
e 42 134 48.0
e 42 293 15.0
e 42 208 12.0
e 43 115 5.0
e 43 223 1.0
e 43 208 1.0
e 43 50 2.0
e 44 183 2.0
e 44 263 1.0
e 44 27 1.0
e 44 274 1.0
e 45 165 2.0
e 45 265 1.0
e 45 310 1.0
e 45 84 1.0
e 46 175 2.0
e 46 211 2.0
e 46 172 1.0
e 46 308 2.0
e 47 88 1.0
e 47 284 1.0
e 47 63 47.0
e 47 36 1.0
e 48 251 1.0
e 48 209 2.0
e 48 109 1.0
e 48 135 37.0
e 49 193 1.0
e 49 184 1.0
e 49 303 1.0
e 49 81 1.0
e 50 92 1.0
e 50 170 1.0
e 50 39 45.0
e 50 78 2.0
e 51 193 1.0
e 51 105 1.0
e 51 289 1.0
e 51 132 2.0
e 52 43 1.0
e 52 57 1.0
e 52 178 1.0
e 52 276 1.0
e 53 213 41.0
e 53 229 15.0
e 53 209 27.0
e 53 39 39.0
e 53 162 43.0
e 54 21 1.0
e 54 295 1.0
e 54 24 2.0
e 54 31 25.0
e 55 20 1.0
e 55 298 2.0
e 55 278 1.0
e 55 276 1.0
e 56 110 1.0
e 56 92 2.0
e 56 88 2.0
e 56 51 1.0
e 57 29 2.0
e 57 70 1.0
e 57 222 1.0
e 57 315 1.0
e 58 246 1.0
e 58 305 2.0
e 58 244 2.0
e 58 188 1.0
e 59 257 1.0
e 59 286 1.0
e 59 154 1.0
e 59 241 1.0
e 60 300 1.0
e 60 34 1.0
e 60 296 24.0
e 60 176 2.0
e 61 24 1.0
e 61 221 1.0
e 61 158 1.0
e 61 286 1.0
e 62 261 29.0
e 62 28 3.0
e 62 21 1.0
e 62 237 1.0
e 63 57 30.0
e 63 23 19.0
e 63 71 19.0
e 63 53 18.0
e 63 261 23.0
e 64 187 1.0
e 64 301 2.0
e 64 157 2.0
e 64 34 1.0
e 65 171 1.0
e 65 9 1.0
e 65 146 1.0
e 65 41 1.0
e 66 282 1.0
e 66 82 1.0
e 66 220 1.0
e 66 164 1.0
e 67 29 1.0
e 67 304 49.0
e 67 310 15.0
e 67 145 1.0
e 68 281 1.0
e 68 226 1.0
e 68 143 1.0
e 68 181 2.0
e 69 232 1.0
e 69 193 3.0
e 69 35 1.0
e 69 184 3.0
e 70 133 34.0
e 70 3 23.0
e 70 226 1.0
e 70 286 1.0
e 71 222 1.0
e 71 119 1.0
e 71 277 1.0
e 71 197 1.0
e 72 220 1.0
e 72 176 1.0
e 72 141 1.0
e 72 203 1.0
e 73 161 1.0
e 73 108 1.0
e 73 37 2.0
e 73 255 1.0
e 74 25 1.0
e 74 102 2.0
e 74 103 1.0
e 74 38 2.0
e 75 207 1.0
e 75 299 1.0
e 75 112 49.0
e 75 101 2.0
e 76 102 1.0
e 76 285 1.0
e 76 128 1.0
e 76 19 1.0
e 77 180 2.0
e 77 135 36.0
e 77 243 1.0
e 77 288 1.0
e 78 188 1.0
e 78 261 24.0
e 78 54 1.0
e 78 137 2.0
e 79 154 1.0
e 79 83 5.0
e 79 95 30.0
e 79 26 1.0
e 80 241 1.0
e 80 96 10.0
e 80 295 1.0
e 80 138 1.0
e 81 262 1.0
e 81 299 2.0
e 81 126 1.0
e 81 226 1.0
e 82 179 44.0
e 82 255 1.0
e 82 102 1.0
e 82 72 2.0
e 83 138 32.0
e 83 110 13.0
e 83 202 5.0
e 83 233 32.0
e 83 287 33.0
e 84 112 28.0
e 84 52 1.0
e 84 248 1.0
e 84 142 1.0
e 85 12 1.0
e 85 225 1.0
e 85 147 2.0
e 85 204 1.0
e 86 205 1.0
e 86 190 1.0
e 86 56 1.0
e 86 290 1.0
e 87 143 1.0
e 87 130 1.0
e 87 255 2.0
e 87 10 1.0
e 88 243 1.0
e 88 9 1.0
e 88 91 1.0
e 88 45 1.0
e 89 215 2.0
e 89 198 2.0
e 89 81 3.0
e 89 225 1.0
e 90 126 1.0
e 90 172 1.0
e 90 254 1.0
e 90 110 1.0
e 91 181 2.0
e 91 16 13.0
e 91 118 1.0
e 91 103 1.0
e 92 217 1.0
e 92 260 2.0
e 92 162 17.0
e 92 154 1.0
e 93 113 1.0
e 93 25 2.0
e 93 205 1.0
e 93 51 2.0
e 94 131 1.0
e 94 289 2.0
e 94 153 2.0
e 94 273 1.0
e 95 201 40.0
e 95 255 11.0
e 95 233 23.0
e 95 91 38.0
e 96 303 32.0
e 96 90 33.0
e 96 191 17.0
e 96 107 16.0
e 96 280 12.0
e 96 63 34.0
e 97 199 1.0
e 97 196 2.0
e 97 17 1.0
e 97 28 1.0
e 98 190 1.0
e 98 313 1.0
e 98 81 2.0
e 98 236 1.0
e 99 124 1.0
e 99 185 2.0
e 99 164 1.0
e 99 41 2.0
e 100 159 22.0
e 100 0 1.0
e 100 310 21.0
e 100 178 12.0
e 100 296 48.0
e 100 162 31.0
e 100 163 1.0
e 100 112 3.0
e 100 155 35.0
e 101 197 2.0
e 101 129 1.0
e 101 240 2.0
e 101 226 2.0
e 102 282 1.0
e 102 202 1.0
e 102 287 17.0
e 102 238 1.0
e 103 65 1.0
e 103 197 1.0
e 103 58 1.0
e 103 146 1.0
e 104 157 1.0
e 104 274 1.0
e 104 55 1.0
e 104 189 7.0
e 105 152 1.0
e 105 111 1.0
e 105 191 1.0
e 105 219 1.0
e 106 186 1.0
e 106 73 2.0
e 106 19 1.0
e 106 131 1.0
e 107 258 2.0
e 107 285 2.0
e 107 25 1.0
e 107 317 1.0
e 108 191 1.0
e 108 254 1.0
e 108 12 2.0
e 108 317 2.0
e 109 95 23.0
e 109 179 17.0
e 109 229 1.0
e 109 47 1.0
e 110 226 1.0
e 110 315 1.0
e 110 266 1.0
e 110 238 2.0
e 111 281 1.0
e 111 142 1.0
e 111 275 1.0
e 111 274 1.0
e 112 218 40.0
e 112 73 20.0
e 112 237 8.0
e 112 50 17.0
e 113 318 1.0
e 113 123 1.0
e 113 291 1.0
e 113 90 1.0
e 114 4 1.0
e 114 150 25.0
e 114 89 3.0
e 114 138 3.0
e 115 6 22.0
e 115 252 48.0
e 115 179 16.0
e 115 45 33.0
e 115 218 18.0
e 115 30 11.0
e 115 150 9.0
e 115 296 14.0
e 116 71 37.0
e 116 264 27.0
e 116 258 36.0
e 116 275 2.0
e 116 218 4.0
e 116 83 12.0
e 117 80 2.0
e 117 9 2.0
e 117 98 1.0
e 117 174 44.0
e 118 96 5.0
e 118 163 10.0
e 118 121 1.0
e 118 41 1.0
e 119 139 2.0
e 119 0 26.0
e 119 84 2.0
e 119 62 1.0
e 120 121 1.0
e 120 41 1.0
e 120 99 1.0
e 120 58 1.0
e 121 22 7.0
e 121 75 2.0
e 121 191 1.0
e 121 159 10.0
e 122 111 1.0
e 122 124 1.0
e 122 285 1.0
e 122 255 1.0
e 123 32 1.0
e 123 271 1.0
e 123 118 1.0
e 123 135 29.0
e 124 298 1.0
e 124 278 1.0
e 124 31 44.0
e 125 13 1.0
e 125 233 1.0
e 125 187 1.0
e 125 281 1.0
e 126 287 17.0
e 126 88 2.0
e 126 163 5.0
e 126 75 2.0
e 127 293 1.0
e 127 306 2.0
e 127 117 1.0
e 127 91 1.0
e 128 131 1.0
e 128 2 2.0
e 128 144 1.0
e 128 228 1.0
e 129 203 1.0
e 129 31 11.0
e 129 280 48.0
e 129 269 1.0
e 130 4 1.0
e 130 16 37.0
e 130 68 1.0
e 130 177 1.0
e 131 275 1.0
e 131 255 1.0
e 131 221 1.0
e 131 58 1.0
e 132 5 1.0
e 132 308 1.0
e 132 15 1.0
e 132 37 3.0
e 133 255 32.0
e 133 256 28.0
e 133 61 10.0
e 133 33 14.0
e 133 0 33.0
e 134 156 2.0
e 134 38 2.0
e 134 22 28.0
e 134 79 1.0
e 135 155 29.0
e 135 245 18.0
e 135 25 2.0
e 135 49 24.0
e 135 95 28.0
e 135 159 41.0
e 136 117 27.0
e 136 284 21.0
e 136 182 32.0
e 136 188 16.0
e 136 133 32.0
e 137 130 1.0
e 137 296 34.0
e 137 318 2.0
e 137 148 3.0
e 138 59 2.0
e 138 17 2.0
e 138 227 1.0
e 138 94 1.0
e 139 1 1.0
e 139 112 37.0
e 139 204 1.0
e 139 12 1.0
e 140 196 3.0
e 140 153 1.0
e 140 154 1.0
e 140 62 1.0
e 141 14 1.0
e 141 97 1.0
e 141 190 1.0
e 141 195 1.0
e 142 79 1.0
e 142 108 1.0
e 142 178 2.0
e 142 13 2.0
e 143 104 1.0
e 143 246 2.0
e 143 304 8.0
e 143 265 1.0
e 144 0 30.0
e 144 165 1.0
e 144 6 1.0
e 144 106 1.0
e 145 133 45.0
e 145 238 1.0
e 145 93 1.0
e 145 187 1.0
e 146 166 1.0
e 146 211 1.0
e 146 286 1.0
e 146 181 1.0
e 147 301 2.0
e 147 215 1.0
e 147 308 1.0
e 147 45 2.0
e 148 313 1.0
e 148 215 1.0
e 148 89 3.0
e 148 202 1.0
e 149 94 30.0
e 149 200 45.0
e 149 306 31.0
e 149 163 16.0
e 150 20 3.0
e 150 166 2.0
e 150 212 23.0
e 150 304 2.0
e 151 27 2.0
e 151 63 13.0
e 151 214 1.0
e 151 185 2.0
e 152 123 1.0
e 152 236 1.0
e 152 24 1.0
e 152 107 2.0
e 153 149 9.0
e 153 27 1.0
e 153 152 1.0
e 153 233 1.0
e 154 309 1.0
e 154 158 1.0
e 154 210 1.0
e 154 262 1.0
e 155 9 27.0
e 155 153 41.0
e 155 229 34.0
e 155 269 23.0
e 156 71 1.0
e 156 248 1.0
e 156 259 1.0
e 156 198 1.0
e 157 25 1.0
e 157 79 1.0
e 157 48 1.0
e 157 250 2.0
e 158 180 1.0
e 158 49 1.0
e 158 274 1.0
e 158 76 1.0
e 159 238 6.0
e 159 150 13.0
e 159 116 40.0
e 159 184 43.0
e 160 117 1.0
e 160 288 1.0
e 160 262 1.0
e 160 50 1.0
e 161 200 1.0
e 161 302 1.0
e 161 199 1.0
e 161 184 1.0
e 162 256 24.0
e 162 143 26.0
e 162 276 16.0
e 162 204 22.0
e 163 90 3.0
e 163 3 9.0
e 163 127 29.0
e 163 99 18.0
e 164 95 30.0
e 164 126 1.0
e 164 181 1.0
e 164 198 1.0
e 165 287 9.0
e 165 47 3.0
e 165 2 1.0
e 165 301 2.0
e 166 181 1.0
e 166 109 1.0
e 166 159 40.0
e 166 318 1.0
e 167 183 1.0
e 167 38 2.0
e 167 7 1.0
e 167 198 2.0
e 168 206 3.0
e 168 209 1.0
e 168 19 2.0
e 168 281 1.0
e 169 48 1.0
e 169 111 1.0
e 169 205 2.0
e 169 44 1.0
e 170 209 1.0
e 170 148 1.0
e 170 267 1.0
e 170 10 1.0
e 171 297 1.0
e 171 86 1.0
e 171 131 1.0
e 171 17 1.0
e 172 232 1.0
e 172 69 1.0
e 172 305 1.0
e 172 235 1.0
e 173 154 1.0
e 173 137 2.0
e 173 38 2.0
e 173 205 2.0
e 174 223 35.0
e 174 88 23.0
e 174 50 49.0
e 174 163 15.0
e 174 303 30.0
e 174 112 39.0
e 175 17 1.0
e 175 278 1.0
e 175 42 47.0
e 175 134 2.0
e 176 53 13.0
e 176 173 1.0
e 176 262 1.0
e 176 47 3.0
e 177 84 1.0
e 177 230 2.0
e 177 315 1.0
e 177 165 1.0
e 178 125 1.0
e 178 192 3.0
e 178 9 2.0
e 178 87 2.0
e 179 270 18.0
e 179 213 31.0
e 179 164 23.0
e 179 260 47.0
e 180 10 1.0
e 180 5 1.0
e 180 208 1.0
e 180 253 1.0
e 181 62 1.0
e 181 41 2.0
e 181 265 1.0
e 181 8 35.0
e 182 233 1.0
e 182 178 1.0
e 182 108 1.0
e 182 142 1.0
e 183 199 1.0
e 183 216 1.0
e 183 240 1.0
e 183 179 45.0
e 184 185 1.0
e 184 187 2.0
e 184 311 1.0
e 184 19 2.0
e 185 238 1.0
e 185 214 1.0
e 185 239 1.0
e 185 129 1.0
e 186 215 2.0
e 186 318 1.0
e 186 298 1.0
e 186 209 1.0
e 187 10 1.0
e 187 255 1.0
e 187 157 1.0
e 187 294 1.0
e 188 75 2.0
e 188 44 1.0
e 188 287 18.0
e 188 194 1.0
e 189 292 20.0
e 189 55 39.0
e 189 280 14.0
e 189 255 23.0
e 189 135 17.0
e 190 93 2.0
e 190 215 2.0
e 190 230 1.0
e 190 109 1.0
e 191 174 36.0
e 191 227 1.0
e 191 264 2.0
e 191 24 2.0
e 192 68 1.0
e 192 221 1.0
e 192 240 1.0
e 192 269 1.0
e 193 60 2.0
e 193 65 2.0
e 193 226 2.0
e 193 122 1.0
e 194 138 2.0
e 194 172 1.0
e 194 70 1.0
e 194 248 2.0
e 195 277 1.0
e 195 59 1.0
e 195 220 1.0
e 195 89 2.0
e 196 228 2.0
e 196 101 1.0
e 196 114 1.0
e 196 75 1.0
e 197 156 2.0
e 197 59 1.0
e 197 199 1.0
e 197 83 47.0
e 198 67 1.0
e 198 43 2.0
e 198 62 1.0
e 198 255 1.0
e 199 246 1.0
e 199 81 1.0
e 199 18 1.0
e 200 226 1.0
e 200 64 1.0
e 200 157 1.0
e 200 99 1.0
e 201 24 1.0
e 201 138 2.0
e 201 316 1.0
e 201 65 2.0
e 202 31 24.0
e 202 158 1.0
e 202 32 1.0
e 202 143 1.0
e 203 241 1.0
e 203 296 31.0
e 203 15 1.0
e 203 52 1.0
e 204 165 1.0
e 204 16 30.0
e 204 126 1.0
e 204 155 14.0
e 205 113 1.0
e 205 215 1.0
e 205 90 1.0
e 205 278 1.0
e 206 246 10.0
e 206 40 29.0
e 206 55 23.0
e 206 182 27.0
e 206 310 21.0
e 206 115 4.0
e 207 170 1.0
e 207 76 1.0
e 207 144 1.0
e 207 284 2.0
e 208 283 1.0
e 208 202 1.0
e 208 292 2.0
e 208 62 2.0
e 209 160 1.0
e 209 219 1.0
e 209 157 1.0
e 209 313 2.0
e 210 226 1.0
e 210 131 1.0
e 210 126 1.0
e 210 213 1.0
e 211 137 1.0
e 211 192 1.0
e 211 78 2.0
e 211 190 1.0
e 212 282 1.0
e 212 273 2.0
e 212 197 2.0
e 212 15 2.0
e 213 232 1.0
e 213 28 1.0
e 213 82 2.0
e 213 62 2.0
e 214 298 1.0
e 214 205 1.0
e 214 251 1.0
e 214 75 2.0
e 215 243 1.0
e 215 237 2.0
e 215 122 1.0
e 215 282 1.0
e 216 129 1.0
e 216 229 1.0
e 216 306 1.0
e 216 75 1.0
e 217 166 1.0
e 217 244 1.0
e 217 258 1.0
e 217 155 28.0
e 218 42 31.0
e 218 26 14.0
e 218 270 9.0
e 218 233 8.0
e 219 11 2.0
e 219 313 1.0
e 219 138 1.0
e 219 26 1.0
e 220 13 1.0
e 220 289 1.0
e 220 49 1.0
e 220 191 1.0
e 221 32 2.0
e 221 210 1.0
e 221 190 1.0
e 221 242 1.0
e 222 98 1.0
e 222 291 1.0
e 222 50 1.0
e 222 304 30.0
e 223 251 1.0
e 223 182 2.0
e 223 13 1.0
e 223 106 1.0
e 224 169 3.0
e 224 136 23.0
e 224 42 30.0
e 224 65 1.0
e 225 106 1.0
e 225 315 1.0
e 225 248 1.0
e 225 116 6.0
e 226 88 1.0
e 226 42 30.0
e 226 312 1.0
e 226 49 1.0
e 227 256 1.0
e 227 11 1.0
e 227 312 1.0
e 227 293 1.0
e 228 22 31.0
e 228 11 1.0
e 228 8 17.0
e 228 173 1.0
e 229 185 1.0
e 229 57 1.0
e 229 237 2.0
e 229 254 2.0
e 230 145 1.0
e 230 44 2.0
e 230 200 2.0
e 230 69 1.0
e 231 30 32.0
e 231 306 1.0
e 231 261 10.0
e 231 59 1.0
e 232 128 1.0
e 232 110 2.0
e 232 301 1.0
e 232 260 1.0
e 233 76 1.0
e 233 156 1.0
e 233 73 2.0
e 233 149 38.0
e 234 81 1.0
e 234 96 45.0
e 234 151 1.0
e 235 19 1.0
e 235 276 1.0
e 235 198 1.0
e 235 256 1.0
e 236 294 2.0
e 236 94 2.0
e 236 168 2.0
e 236 85 1.0
e 237 23 1.0
e 237 99 2.0
e 237 127 1.0
e 237 276 1.0
e 238 291 2.0
e 238 59 1.0
e 238 258 1.0
e 238 176 1.0
e 239 98 1.0
e 239 275 1.0
e 239 252 37.0
e 239 280 20.0
e 240 170 1.0
e 240 263 1.0
e 240 57 1.0
e 240 236 1.0
e 241 69 2.0
e 241 136 14.0
e 241 138 2.0
e 241 85 2.0
e 242 9 1.0
e 242 125 1.0
e 242 90 1.0
e 242 151 1.0
e 243 166 1.0
e 243 183 1.0
e 243 9 2.0
e 243 7 1.0
e 244 214 3.0
e 244 310 4.0
e 244 312 1.0
e 244 76 2.0
e 245 206 16.0
e 245 54 1.0
e 245 23 1.0
e 245 276 1.0
e 246 205 1.0
e 246 86 1.0
e 246 94 1.0
e 247 93 2.0
e 247 131 1.0
e 247 97 1.0
e 247 46 3.0
e 248 237 2.0
e 248 302 1.0
e 248 6 2.0
e 248 174 4.0
e 249 147 1.0
e 249 210 1.0
e 249 263 1.0
e 249 82 2.0
e 250 141 1.0
e 250 160 1.0
e 250 221 2.0
e 250 265 2.0
e 251 7 1.0
e 251 246 2.0
e 251 222 1.0
e 251 313 2.0
e 252 222 23.0
e 252 289 39.0
e 252 276 43.0
e 252 169 38.0
e 253 307 1.0
e 253 256 1.0
e 253 238 1.0
e 253 297 1.0
e 254 201 1.0
e 254 269 2.0
e 254 187 1.0
e 254 159 38.0
e 255 229 1.0
e 255 217 1.0
e 255 22 25.0
e 255 65 1.0
e 256 186 1.0
e 256 164 1.0
e 256 35 2.0
e 256 131 1.0
e 257 12 1.0
e 257 252 3.0
e 257 3 36.0
e 257 7 1.0
e 258 189 36.0
e 258 23 1.0
e 258 114 1.0
e 259 78 1.0
e 259 49 1.0
e 259 13 1.0
e 259 5 1.0
e 260 55 1.0
e 260 162 39.0
e 260 204 1.0
e 260 101 1.0
e 261 314 25.0
e 261 316 13.0
e 261 313 6.0
e 261 309 45.0
e 262 205 1.0
e 262 316 1.0
e 262 75 1.0
e 262 46 1.0
e 263 224 1.0
e 263 13 1.0
e 263 7 1.0
e 263 64 1.0
e 264 187 1.0
e 264 145 2.0
e 264 78 1.0
e 264 18 2.0
e 265 244 2.0
e 265 122 1.0
e 265 309 1.0
e 265 70 1.0
e 266 40 1.0
e 266 84 1.0
e 266 23 2.0
e 266 233 1.0
e 267 227 1.0
e 267 312 1.0
e 267 272 1.0
e 267 129 1.0
e 268 54 2.0
e 268 58 1.0
e 268 262 1.0
e 268 271 2.0
e 269 27 1.0
e 269 298 1.0
e 269 233 1.0
e 269 304 23.0
e 270 151 1.0
e 270 217 1.0
e 270 78 1.0
e 270 236 1.0
e 271 318 1.0
e 271 108 2.0
e 271 52 1.0
e 271 133 23.0
e 272 28 3.0
e 272 274 1.0
e 272 193 1.0
e 272 241 1.0
e 273 218 22.0
e 273 213 1.0
e 273 25 2.0
e 273 271 1.0
e 274 193 1.0
e 274 250 1.0
e 274 235 1.0
e 274 105 1.0
e 275 92 1.0
e 275 180 1.0
e 275 303 39.0
e 275 234 2.0
e 276 316 1.0
e 276 202 1.0
e 276 261 17.0
e 276 36 1.0
e 277 139 1.0
e 277 282 2.0
e 277 300 1.0
e 277 286 1.0
e 278 145 1.0
e 278 51 1.0
e 278 21 1.0
e 278 70 1.0
e 279 56 2.0
e 279 16 42.0
e 279 157 1.0
e 279 14 2.0
e 280 159 21.0
e 280 45 2.0
e 280 6 49.0
e 280 277 22.0
e 281 45 1.0
e 281 152 1.0
e 281 199 1.0
e 281 39 46.0
e 282 27 1.0
e 282 232 1.0
e 282 228 2.0
e 282 155 28.0
e 283 81 2.0
e 283 222 1.0
e 283 277 1.0
e 283 13 1.0
e 284 168 1.0
e 284 44 3.0
e 284 231 2.0
e 284 79 2.0
e 285 254 1.0
e 285 3 22.0
e 285 273 1.0
e 285 180 2.0
e 286 1 1.0
e 286 210 1.0
e 286 257 1.0
e 286 305 1.0
e 287 148 41.0
e 287 66 43.0
e 287 193 3.0
e 287 16 44.0
e 288 170 1.0
e 288 146 1.0
e 288 124 1.0
e 288 264 2.0
e 289 27 2.0
e 289 302 1.0
e 289 123 2.0
e 290 137 3.0
e 290 193 3.0
e 290 154 1.0
e 290 259 1.0
e 291 67 1.0
e 291 20 1.0
e 291 139 2.0
e 291 217 1.0
e 292 142 1.0
e 292 238 1.0
e 292 164 1.0
e 292 315 2.0
e 293 180 1.0
e 293 184 1.0
e 293 139 2.0
e 293 53 44.0
e 294 258 1.0
e 294 150 34.0
e 294 123 2.0
e 294 107 1.0
e 295 264 2.0
e 295 215 1.0
e 295 213 1.0
e 295 297 1.0
e 296 273 37.0
e 296 81 31.0
e 296 142 36.0
e 296 197 40.0
e 297 204 1.0
e 297 49 1.0
e 297 170 1.0
e 297 273 1.0
e 298 283 1.0
e 298 50 2.0
e 298 11 1.0
e 298 117 1.0
e 299 86 1.0
e 299 301 1.0
e 299 116 35.0
e 299 98 1.0
e 300 249 1.0
e 300 39 2.0
e 300 265 2.0
e 300 68 2.0
e 301 176 1.0
e 301 205 2.0
e 301 152 1.0
e 301 53 13.0
e 302 171 1.0
e 302 236 1.0
e 302 231 1.0
e 302 43 1.0
e 303 117 7.0
e 303 157 3.0
e 303 130 17.0
e 303 89 38.0
e 304 8 44.0
e 304 130 32.0
e 304 126 22.0
e 304 122 19.0
e 305 89 1.0
e 305 44 1.0
e 305 53 49.0
e 305 249 2.0
e 306 8 27.0
e 306 114 1.0
e 306 311 1.0
e 306 279 1.0
e 307 228 1.0
e 307 291 1.0
e 307 14 2.0
e 307 285 2.0
e 308 215 1.0
e 308 204 1.0
e 308 77 1.0
e 308 52 1.0
e 309 243 2.0
e 309 29 2.0
e 309 264 1.0
e 309 12 1.0
e 310 57 45.0
e 310 118 17.0
e 310 162 21.0
e 310 261 19.0
e 311 15 2.0
e 311 76 1.0
e 311 65 1.0
e 311 60 2.0
e 312 61 1.0
e 312 271 1.0
e 312 275 1.0
e 312 173 1.0
e 313 282 1.0
e 313 298 1.0
e 313 300 1.0
e 313 255 1.0
e 314 189 35.0
e 314 76 1.0
e 314 29 1.0
e 314 123 1.0
e 315 196 2.0
e 315 137 1.0
e 315 13 1.0
e 315 284 1.0
e 316 54 1.0
e 316 41 1.0
e 316 24 1.0
e 316 150 9.0
e 317 43 1.0
e 317 270 1.0
e 317 233 1.0
e 317 63 28.0
e 318 61 2.0
e 318 303 16.0
e 318 206 49.0
e 318 95 23.0
e 319 313 1.0
e 319 59 1.0
e 319 248 2.0
e 319 252 28.0
